N = 27;
M = 86;
R0 = 50;
Start =0;
End = 26;
Edge =  [|2 ,7 ,
         | 2 ,8 ,
         | 3 ,8 ,
         | 3 ,9 ,
         | 3 ,7 ,
         | 4 ,9 ,
         | 4 ,10 ,
         | 4 ,8 ,
         | 5 ,10 ,
         | 5 ,11 ,
         | 5 ,9 ,
         | 6 ,11 ,
         | 6 ,10 ,
         | 7 ,8 ,
         | 7 ,12 ,
         | 7 ,13 ,
         | 8 ,9 ,
         | 8 ,7 ,
         | 8 ,13 ,
         | 8 ,14 ,
         | 8 ,12 ,
         | 9 ,10 ,
         | 9 ,8 ,
         | 9 ,14 ,
         | 9 ,15 ,
         | 9 ,13 ,
         | 10 ,11 ,
         | 10 ,9 ,
         | 10 ,15 ,
         | 10 ,16 ,
         | 10 ,14 ,
         | 11 ,10 ,
         | 11 ,16 ,
         | 11 ,15 ,
         | 12 ,13 ,
         | 12 ,17 ,
         | 12 ,18 ,
         | 13 ,14 ,
         | 13 ,12 ,
         | 13 ,18 ,
         | 13 ,19 ,
         | 13 ,17 ,
         | 14 ,15 ,
         | 14 ,13 ,
         | 14 ,19 ,
         | 14 ,20 ,
         | 14 ,18 ,
         | 15 ,16 ,
         | 15 ,14 ,
         | 15 ,20 ,
         | 15 ,21 ,
         | 15 ,19 ,
         | 16 ,15 ,
         | 16 ,21 ,
         | 16 ,20 ,
         | 17 ,18 ,
         | 17 ,22 ,
         | 17 ,23 ,
         | 18 ,19 ,
         | 18 ,17 ,
         | 18 ,23 ,
         | 18 ,24 ,
         | 18 ,22 ,
         | 19 ,20 ,
         | 19 ,18 ,
         | 19 ,24 ,
         | 19 ,25 ,
         | 19 ,23 ,
         | 20 ,21 ,
         | 20 ,19 ,
         | 20 ,25 ,
         | 20 ,26 ,
         | 20 ,24 ,
         | 21 ,20 ,
         | 21 ,26 ,
         | 21 ,25 ,
         | 1 ,2 ,
         | 1 ,3 ,
         | 1 ,4 ,
         | 1 ,5 ,
         | 1 ,6 ,
         | 22 ,27 ,
         | 23 ,27 ,
         | 24 ,27 ,
         | 25 ,27 ,
         | 26 ,27|];

L = [6 ,3 ,4 ,10 ,10 ,3 ,3 ,10 ,6 ,2 ,4 ,4 ,10 ,1 ,1 ,5 ,7 ,8 ,3 ,6 ,10 ,7 ,4 ,4 ,4 ,1 ,7 ,5 ,7 ,6 ,9 ,9 ,4 ,8 ,3 ,9 ,6 ,10 ,6 ,8 ,3 ,9 ,6 ,1 ,7 ,7 ,5 ,5 ,4 ,3 ,6 ,4 ,2 ,10 ,3 ,6 ,7 ,7 ,6 ,5 ,1 ,7 ,9 ,1 ,6 ,4 ,3 ,3 ,8 ,2 ,5 ,9 ,1 ,8 ,9 ,6 ,0 ,0 ,0 ,0 ,0 ,0 ,0 ,0 ,0 ,0];
D = [5 ,2 ,6 ,9 ,6 ,6 ,8 ,4 ,9 ,2 ,6 ,9 ,6 ,7 ,5 ,8 ,3 ,1 ,3 ,3 ,7 ,2 ,10 ,4 ,3 ,2 ,5 ,6 ,10 ,4 ,10 ,10 ,10 ,6 ,8 ,8 ,8 ,9 ,9 ,4 ,9 ,1 ,9 ,3 ,8 ,1 ,9 ,6 ,4 ,2 ,10 ,8 ,1 ,1 ,6 ,6 ,6 ,8 ,9 ,5 ,8 ,9 ,3 ,1 ,4 ,1 ,2 ,7 ,6 ,6 ,4 ,3 ,10 ,8 ,3 ,9 ,0 ,0 ,0 ,0 ,0 ,0 ,0 ,0 ,0 ,0];
R = [5 ,1 ,1 ,2 ,4 ,1 ,3 ,5 ,2 ,3 ,1 ,2 ,3 ,2 ,5 ,5 ,5 ,3 ,4 ,2 ,4 ,2 ,5 ,1 ,1 ,2 ,3 ,1 ,3 ,1 ,4 ,2 ,2 ,4 ,5 ,4 ,1 ,2 ,5 ,1 ,4 ,4 ,5 ,4 ,4 ,2 ,1 ,3 ,2 ,5 ,5 ,1 ,1 ,4 ,2 ,2 ,2 ,5 ,5 ,2 ,1 ,4 ,4 ,1 ,4 ,5 ,1 ,3 ,5 ,4 ,1 ,2 ,3 ,5 ,1 ,2 ,500 ,500 ,500 ,500 ,500 ,500 ,500 ,500 ,500 ,500];
Balance = [1 ,0 ,0 ,0 ,0 ,0 ,0 ,0 ,0 ,0 ,0 ,0 ,0 ,0 ,0 ,0 ,0 ,0 ,0 ,0 ,0 ,0 ,0 ,0 ,0 ,0 ,-1];
